samf/hales/sun/s9_1.in
32
0.05

